Set parameter TokenServer to value "hpc-licenses.hpcc.usc.edu"
Set parameter TimeLimit to value 3600
Gurobi Optimizer version 9.5.1 build v9.5.1rc2 (linux64)
Thread count: 20 physical cores, 20 logical processors, using up to 20 threads
Optimize a model with 6007 rows, 4529 columns and 24534 nonzeros
Model fingerprint: 0xf7176040
Variable types: 4506 continuous, 23 integer (23 binary)
Coefficient statistics:
  Matrix range     [1e+00, 1e+00]
  Objective range  [9e-04, 1e+00]
  Bounds range     [1e+00, 1e+00]
  RHS range        [1e+00, 1e+02]
Presolve removed 1520 rows and 1515 columns
Presolve time: 0.06s
Presolved: 4487 rows, 3014 columns, 21975 nonzeros
Variable types: 2994 continuous, 20 integer (20 binary)
Found heuristic solution: objective 260.9164178

Root relaxation: objective 2.698471e+02, 3063 iterations, 0.13 seconds (0.16 work units)

    Nodes    |    Current Node    |     Objective Bounds      |     Work
 Expl Unexpl |  Obj  Depth IntInf | Incumbent    BestBd   Gap | It/Node Time

     0     0  269.84709    0    2  260.91642  269.84709  3.42%     -    0s
     0     0  269.79442    0    2  260.91642  269.79442  3.40%     -    0s
H    0     0                     262.8445512  269.79442  2.64%     -    0s
     0     0  269.72659    0    2  262.84455  269.72659  2.62%     -    0s
     0     0  269.42050    0    3  262.84455  269.42050  2.50%     -    0s
     0     0  269.41193    0    3  262.84455  269.41193  2.50%     -    0s
     0     0  269.30947    0    3  262.84455  269.30947  2.46%     -    0s
     0     0  269.26219    0    3  262.84455  269.26219  2.44%     -    0s
     0     0  269.04394    0    3  262.84455  269.04394  2.36%     -    0s
     0     0  269.04394    0    3  262.84455  269.04394  2.36%     -    0s
     0     0  269.01599    0    4  262.84455  269.01599  2.35%     -    0s
     0     0  269.01599    0    2  262.84455  269.01599  2.35%     -    0s
     0     0  269.01599    0    7  262.84455  269.01599  2.35%     -    1s
     0     0  269.01346    0    4  262.84455  269.01346  2.35%     -    1s
     0     0  269.01013    0    4  262.84455  269.01013  2.35%     -    1s
H    0     0                     268.1776187  269.00875  0.31%     -    1s
     0     0  269.00875    0    4  268.17762  269.00875  0.31%     -    1s
     0     0  268.80437    0    4  268.17762  268.80437  0.23%     -    1s
     0     0  268.80437    0    2  268.17762  268.80437  0.23%     -    1s
     0     0  268.80437    0    2  268.17762  268.80437  0.23%     -    2s
     0     0  268.80437    0    2  268.17762  268.80437  0.23%     -    2s
     0     0  268.80437    0    4  268.17762  268.80437  0.23%     -    2s
     0     0  268.80437    0    4  268.17762  268.80437  0.23%     -    2s
     0     0  268.80437    0    4  268.17762  268.80437  0.23%     -    2s
     0     0  268.80437    0    4  268.17762  268.80437  0.23%     -    2s
     0     0  268.80437    0    4  268.17762  268.80437  0.23%     -    2s
     0     0  268.80437    0    4  268.17762  268.80437  0.23%     -    2s
     0     0  268.80437    0    4  268.17762  268.80437  0.23%     -    3s
     0     0  268.80437    0    4  268.17762  268.80437  0.23%     -    3s
     0     2  268.80437    0    4  268.17762  268.80437  0.23%     -    3s
    19     1  268.17972   12    2  268.17762  268.41471  0.09%   125    5s

Cutting planes:
  Gomory: 2
  MIR: 257
  Flow cover: 7
  RLT: 9

Explored 21 nodes (8864 simplex iterations) in 5.06 seconds (2.54 work units)
Thread count was 20 (of 20 available processors)

Solution count 3: 268.178 262.845 260.916 

Optimal solution found (tolerance 1.00e-04)
Best objective 2.681776186878e+02, best bound 2.681787745516e+02, gap 0.0004%



#########node  1
V1.8
#########node  2
0.0,1.0
#########node  3
0.9673366834170855,0.032663316582914555


Total Solving Time 5.502378702163696
obj value 268.177618687751
Policy Regret train (Sum) 13.487813242844421
Best Treatment Found train (%) 49.0
treatment classification acc train (%) 53.400000000000006
Policy Regret test (Sum) 61.813832268000596
Best Treatment Found test (%) 75.11
treatment classification acc test (%) 50.96000000000001
